1 0 1 0
2 0 2 0
3 0 1 8
0 0 2 5
0 1 0 6
1 1 2 8
2 1 3 5
5 0 1 13
3 1 0 13
4 0 2 13
0 2 1 16
1 2 4 13
5 1 3 16
2 2 5 9
2 3 0 18
5 2 5 19
4 1 1 22
2 4 1 27
4 2 4 25
3 2 2 22
3 3 3 27
1 3 5 28
0 3 3 30
3 4 4 30
0 4 5 38
4 3 5 41
5 3 0 28
1 4 0 38
5 4 4 38
1 5 3 48
4 4 0 48
0 5 4 42
3 5 5 45
5 5 2 42
2 5 4 48
4 5 3 52
